10528.62,57.77,71.66
10496.73,57.94,71.88
11243.48,54.1,67.1
9768.41,62.26,77.24
10223.4,59.49,73.8
11253.31,54.05,67.05
10667.57,57.02,70.73
9943.32,61.17,75.88
9992.38,60.87,75.51
9646.17,63.05,78.22
10165.34,59.83,74.22
10644.47,57.14,70.88
9957.97,61.08,75.77
10259.29,59.28,73.54
11420.74,53.26,66.06
9539.92,63.75,79.09
11084.36,54.87,68.07
9833.26,61.85,76.73
9867.24,61.64,76.46
11155.76,54.52,67.63
